NAME: gr07
TYPE: TSP
COMMENT: 07-city problem (Groetschel)
DIMENSION: 07
EDGE_WEIGHT_TYPE: EXPLICIT
EDGE_WEIGHT_FORMAT: LOWER_DIAG_ROW 
EDGE_WEIGHT_SECTION
 0 633 0 257 390 0 91 661 228 0 412 227
 169 383 0 150 488 112 120 267 0 80 572 196
 77 351 63 0
EOF
